src/ARITHMETIC/MACC/macc/model/design_smt2.smt2
; SMT-LIBv2 description generated by Yosys 0.9+2406 (git sha1 a1785e988b, g++ 9.3.0 -fPIC -Os)
; yosys-smt2-module macc
(declare-sort |macc_s| 0)
(declare-fun |macc_is| (|macc_s|) Bool)
; yosys-smt2-register r_SUM_RESULT 8
; yosys-smt2-wire r_SUM_RESULT 8
(declare-fun |macc#0| (|macc_s|) (_ BitVec 8)) ; \r_SUM_RESULT
(define-fun |macc_n r_SUM_RESULT| ((state |macc_s|)) (_ BitVec 8) (|macc#0| state))
; yosys-smt2-register r_MUL_RESULT 8
; yosys-smt2-wire r_MUL_RESULT 8
(declare-fun |macc#1| (|macc_s|) (_ BitVec 8)) ; \r_MUL_RESULT
(define-fun |macc_n r_MUL_RESULT| ((state |macc_s|)) (_ BitVec 8) (|macc#1| state))
; yosys-smt2-output o_RESULT 8
; yosys-smt2-register o_RESULT 8
; yosys-smt2-wire o_RESULT 8
(declare-fun |macc#2| (|macc_s|) (_ BitVec 8)) ; \o_RESULT
(define-fun |macc_n o_RESULT| ((state |macc_s|)) (_ BitVec 8) (|macc#2| state))
; yosys-smt2-input i_RESET 1
; yosys-smt2-wire i_RESET 1
(declare-fun |macc#3| (|macc_s|) Bool) ; \i_RESET
(define-fun |macc_n i_RESET| ((state |macc_s|)) Bool (|macc#3| state))
; yosys-smt2-input i_CLK 1
; yosys-smt2-wire i_CLK 1
(declare-fun |macc#4| (|macc_s|) Bool) ; \i_CLK
(define-fun |macc_n i_CLK| ((state |macc_s|)) Bool (|macc#4| state))
; yosys-smt2-input i_CLEAR_ACC_REG 1
; yosys-smt2-wire i_CLEAR_ACC_REG 1
(declare-fun |macc#5| (|macc_s|) Bool) ; \i_CLEAR_ACC_REG
(define-fun |macc_n i_CLEAR_ACC_REG| ((state |macc_s|)) Bool (|macc#5| state))
; yosys-smt2-input i_B 4
; yosys-smt2-wire i_B 4
(declare-fun |macc#6| (|macc_s|) (_ BitVec 4)) ; \i_B
(define-fun |macc_n i_B| ((state |macc_s|)) (_ BitVec 4) (|macc#6| state))
; yosys-smt2-input i_A 4
; yosys-smt2-wire i_A 4
(declare-fun |macc#7| (|macc_s|) (_ BitVec 4)) ; \i_A
(define-fun |macc_n i_A| ((state |macc_s|)) (_ BitVec 4) (|macc#7| state))
; yosys-smt2-register fr_past_valid 1
; yosys-smt2-wire fr_past_valid 1
(declare-fun |macc#8| (|macc_s|) (_ BitVec 1)) ; \fr_past_valid
(define-fun |macc_n fr_past_valid| ((state |macc_s|)) Bool (= ((_ extract 0 0) (|macc#8| state)) #b1))
; yosys-smt2-register $past$./macc.v:53$6$0 4
(declare-fun |macc#9| (|macc_s|) (_ BitVec 4)) ; $past$./macc.v:53$6$0
(define-fun |macc_n $past$./macc.v:53$6$0| ((state |macc_s|)) (_ BitVec 4) (|macc#9| state))
; yosys-smt2-register $past$./macc.v:52$5$0 4
(declare-fun |macc#10| (|macc_s|) (_ BitVec 4)) ; $past$./macc.v:52$5$0
(define-fun |macc_n $past$./macc.v:52$5$0| ((state |macc_s|)) (_ BitVec 4) (|macc#10| state))
; yosys-smt2-register $past$./macc.v:51$4$0 1
(declare-fun |macc#11| (|macc_s|) (_ BitVec 1)) ; $past$./macc.v:51$4$0
(define-fun |macc_n $past$./macc.v:51$4$0| ((state |macc_s|)) Bool (= ((_ extract 0 0) (|macc#11| state)) #b1))
; yosys-smt2-register $formal$./macc.v:46$8_EN 1
(declare-fun |macc#12| (|macc_s|) (_ BitVec 1)) ; $formal$./macc.v:46$8_EN
(define-fun |macc_n $formal$./macc.v:46$8_EN| ((state |macc_s|)) Bool (= ((_ extract 0 0) (|macc#12| state)) #b1))
; yosys-smt2-register $formal$./macc.v:46$8_CHECK 1
(declare-fun |macc#13| (|macc_s|) (_ BitVec 1)) ; $formal$./macc.v:46$8_CHECK
(define-fun |macc_n $formal$./macc.v:46$8_CHECK| ((state |macc_s|)) Bool (= ((_ extract 0 0) (|macc#13| state)) #b1))
; yosys-smt2-register $eq$./macc.v:46$41_Y 1
(declare-fun |macc#14| (|macc_s|) (_ BitVec 1)) ; $eq$./macc.v:46$41_Y
(define-fun |macc_n $eq$./macc.v:46$41_Y| ((state |macc_s|)) Bool (= ((_ extract 0 0) (|macc#14| state)) #b1))
; yosys-smt2-register $and$./macc.v:0$35_Y 1
(declare-fun |macc#15| (|macc_s|) (_ BitVec 1)) ; $and$./macc.v:0$35_Y
(define-fun |macc_n $and$./macc.v:0$35_Y| ((state |macc_s|)) Bool (= ((_ extract 0 0) (|macc#15| state)) #b1))
(define-fun |macc#16| ((state |macc_s|)) Bool (= (|macc#9| state) (|macc#6| state))) ; $eq$./macc.v:53$47_Y
; yosys-smt2-anyseq macc#17 1 $auto$setundef.cc:501:execute$136
(declare-fun |macc#17| (|macc_s|) (_ BitVec 1)) ; $auto$rtlil.cc:2437:Anyseq$137
(define-fun |macc#18| ((state |macc_s|)) Bool (not (or  (= ((_ extract 0 0) (|macc#15| state)) #b1) false false false false false false false false false false false false false false false false false false false false false false false false false false false false false false false))) ; $logic_not$./macc.v:0$36_Y
(define-fun |macc#19| ((state |macc_s|)) Bool (and (or  (|macc#18| state) false) (or  (|macc#4| state) false false false false false false false false false false false false false false false false false false false false false false false false false false false false false false false))) ; $logic_and$./macc.v:44$38_Y
(define-fun |macc#20| ((state |macc_s|)) Bool (and (or  (|macc#19| state) false) (or  (= ((_ extract 0 0) (|macc#8| state)) #b1) false))) ; $logic_and$./macc.v:44$40_Y
(define-fun |macc#21| ((state |macc_s|)) (_ BitVec 1) (ite (|macc#20| state) (|macc#17| state) (ite (|macc#16| state) #b1 #b0))) ; $0$formal$./macc.v:52$11_CHECK[0:0]$32
(define-fun |macc#22| ((state |macc_s|)) (_ BitVec 1) (ite (|macc#20| state) #b0 #b1)) ; $0$formal$./macc.v:50$9_EN[0:0]$29
; yosys-smt2-assume 0 ./macc.v:52.25-53.24
(define-fun |macc_u 0| ((state |macc_s|)) Bool (or (= ((_ extract 0 0) (|macc#21| state)) #b1) (not (= ((_ extract 0 0) (|macc#22| state)) #b1)))) ; $assume$./macc.v:52$52
(define-fun |macc#23| ((state |macc_s|)) Bool (= (|macc#10| state) (|macc#7| state))) ; $eq$./macc.v:52$46_Y
; yosys-smt2-anyseq macc#24 1 $auto$setundef.cc:501:execute$134
(declare-fun |macc#24| (|macc_s|) (_ BitVec 1)) ; $auto$rtlil.cc:2437:Anyseq$135
(define-fun |macc#25| ((state |macc_s|)) (_ BitVec 1) (ite (|macc#20| state) (|macc#24| state) (ite (|macc#23| state) #b1 #b0))) ; $0$formal$./macc.v:51$10_CHECK[0:0]$30
; yosys-smt2-assume 1 ./macc.v:51.37-52.24
(define-fun |macc_u 1| ((state |macc_s|)) Bool (or (= ((_ extract 0 0) (|macc#25| state)) #b1) (not (= ((_ extract 0 0) (|macc#22| state)) #b1)))) ; $assume$./macc.v:51$51
(define-fun |macc#26| ((state |macc_s|)) Bool (= (|macc#11| state) (ite (|macc#5| state) #b1 #b0))) ; $eq$./macc.v:51$45_Y
; yosys-smt2-anyseq macc#27 1 $auto$setundef.cc:501:execute$132
(declare-fun |macc#27| (|macc_s|) (_ BitVec 1)) ; $auto$rtlil.cc:2437:Anyseq$133
(define-fun |macc#28| ((state |macc_s|)) (_ BitVec 1) (ite (|macc#20| state) (|macc#27| state) (ite (|macc#26| state) #b1 #b0))) ; $0$formal$./macc.v:50$9_CHECK[0:0]$28
; yosys-smt2-assume 2 ./macc.v:50.8-51.36
(define-fun |macc_u 2| ((state |macc_s|)) Bool (or (= ((_ extract 0 0) (|macc#28| state)) #b1) (not (= ((_ extract 0 0) (|macc#22| state)) #b1)))) ; $assume$./macc.v:50$50
(define-fun |macc#29| ((state |macc_s|)) Bool (distinct (|macc#15| state) (ite (|macc#4| state) #b1 #b0))) ; $0$formal$./macc.v:42$7_CHECK[0:0]$24
; yosys-smt2-assume 3 ./macc.v:42.22-43.26
(define-fun |macc_u 3| ((state |macc_s|)) Bool (or (|macc#29| state) (not true))) ; $assume$./macc.v:42$48
; yosys-smt2-assert 0 ./macc.v:46.27-47.45
(define-fun |macc_a 0| ((state |macc_s|)) Bool (or (= ((_ extract 0 0) (|macc#13| state)) #b1) (not (= ((_ extract 0 0) (|macc#12| state)) #b1)))) ; $assert$./macc.v:46$49
; yosys-smt2-anyseq macc#30 1 $auto$setundef.cc:501:execute$130
(declare-fun |macc#30| (|macc_s|) (_ BitVec 1)) ; $auto$rtlil.cc:2437:Anyseq$131
; yosys-smt2-anyseq macc#31 1 $auto$setundef.cc:501:execute$128
(declare-fun |macc#31| (|macc_s|) (_ BitVec 1)) ; $auto$rtlil.cc:2437:Anyseq$129
(define-fun |macc#32| ((state |macc_s|)) Bool (not (or  (= ((_ extract 0 0) (|macc#0| state)) #b1) (= ((_ extract 1 1) (|macc#0| state)) #b1) (= ((_ extract 2 2) (|macc#0| state)) #b1) (= ((_ extract 3 3) (|macc#0| state)) #b1) (= ((_ extract 4 4) (|macc#0| state)) #b1) (= ((_ extract 5 5) (|macc#0| state)) #b1) (= ((_ extract 6 6) (|macc#0| state)) #b1) (= ((_ extract 7 7) (|macc#0| state)) #b1)))) ; $auto$wreduce.cc:460:run$127 [0]
(define-fun |macc#33| ((state |macc_s|)) (_ BitVec 8) (bvor (|macc#1| state) (concat #b0000000 (ite (|macc#32| state) #b1 #b0)))) ; $or$./macc.v:47$43_Y
(define-fun |macc#34| ((state |macc_s|)) Bool (distinct (|macc#33| state) #b00000000)) ; $reduce_bool$./macc.v:0$44_Y
(define-fun |macc#35| ((state |macc_s|)) (_ BitVec 1) (ite (= ((_ extract 0 0) (|macc#14| state)) #b1) (ite (|macc#34| state) #b1 #b0) (|macc#31| state))) ; $procmux$71_Y
(define-fun |macc#36| ((state |macc_s|)) (_ BitVec 1) (ite (|macc#20| state) (|macc#35| state) (|macc#30| state))) ; $0$formal$./macc.v:46$8_CHECK[0:0]$26
(define-fun |macc#37| ((state |macc_s|)) (_ BitVec 1) (ite (= ((_ extract 0 0) (|macc#14| state)) #b1) #b1 #b0)) ; $procmux$66_Y
(define-fun |macc#38| ((state |macc_s|)) (_ BitVec 1) (ite (|macc#20| state) (|macc#37| state) #b0)) ; $0$formal$./macc.v:46$8_EN[0:0]$27
(define-fun |macc#39| ((state |macc_s|)) (_ BitVec 8) (ite (|macc#3| state) (|macc#2| state) (|macc#0| state))) ; $0\o_RESULT[7:0]
(define-fun |macc#40| ((state |macc_s|)) (_ BitVec 8) (bvmul (concat ((_ extract 3 3) (|macc#7| state)) (concat ((_ extract 3 3) (|macc#7| state)) (concat ((_ extract 3 3) (|macc#7| state)) (concat ((_ extract 3 3) (|macc#7| state)) (|macc#7| state))))) (concat ((_ extract 3 3) (|macc#6| state)) (concat ((_ extract 3 3) (|macc#6| state)) (concat ((_ extract 3 3) (|macc#6| state)) (concat ((_ extract 3 3) (|macc#6| state)) (|macc#6| state))))))) ; $mul$./macc.v:26$16_Y
(define-fun |macc#41| ((state |macc_s|)) (_ BitVec 8) (ite (|macc#3| state) #b00000000 (|macc#40| state))) ; $0\r_MUL_RESULT[7:0]
(define-fun |macc#42| ((state |macc_s|)) (_ BitVec 8) (bvadd (|macc#0| state) (|macc#1| state))) ; $add$./macc.v:25$15_Y
(define-fun |macc#43| ((state |macc_s|)) (_ BitVec 8) (ite (|macc#5| state) #b00000000 (|macc#42| state))) ; $procmux$94_Y
(define-fun |macc#44| ((state |macc_s|)) (_ BitVec 8) (ite (|macc#3| state) #b00000000 (|macc#43| state))) ; $0\r_SUM_RESULT[7:0]
(define-fun |macc_a| ((state |macc_s|)) Bool 
  (|macc_a 0| state)
)
(define-fun |macc_u| ((state |macc_s|)) Bool (and
  (|macc_u 0| state)
  (|macc_u 1| state)
  (|macc_u 2| state)
  (|macc_u 3| state)
))
(define-fun |macc_i| ((state |macc_s|)) Bool (and
  (= (|macc#0| state) #b00000000) ; r_SUM_RESULT
  (= (|macc#1| state) #b00000000) ; r_MUL_RESULT
  (= (= ((_ extract 0 0) (|macc#8| state)) #b1) false) ; fr_past_valid
  (= (= ((_ extract 0 0) (|macc#12| state)) #b1) false) ; $formal$./macc.v:46$8_EN
))
(define-fun |macc_h| ((state |macc_s|)) Bool true)
(define-fun |macc_t| ((state |macc_s|) (next_state |macc_s|)) Bool (and
  (= (ite (|macc#4| state) #b1 #b0) (|macc#15| next_state)) ; $procdff$106 $and$./macc.v:0$35_Y
  (= (ite (|macc#3| state) #b1 #b0) (|macc#14| next_state)) ; $procdff$108 $eq$./macc.v:46$41_Y
  (= (|macc#36| state) (|macc#13| next_state)) ; $procdff$114 $formal$./macc.v:46$8_CHECK
  (= (|macc#38| state) (|macc#12| next_state)) ; $procdff$115 $formal$./macc.v:46$8_EN
  (= (ite (|macc#5| state) #b1 #b0) (|macc#11| next_state)) ; $procdff$109 $past$./macc.v:51$4$0
  (= (|macc#7| state) (|macc#10| next_state)) ; $procdff$110 $past$./macc.v:52$5$0
  (= (|macc#6| state) (|macc#9| next_state)) ; $procdff$111 $past$./macc.v:53$6$0
  (= #b1 (|macc#8| next_state)) ; $procdff$105 \fr_past_valid
  (= (|macc#39| state) (|macc#2| next_state)) ; $procdff$122 \o_RESULT
  (= (|macc#41| state) (|macc#1| next_state)) ; $procdff$123 \r_MUL_RESULT
  (= (|macc#44| state) (|macc#0| next_state)) ; $procdff$124 \r_SUM_RESULT
)) ; end of module macc
; yosys-smt2-topmod macc
; end of yosys output
